







































































































41 66 71 43 16 61 17 
63 62 38 21 2 33 50 19 
68 8 54 0 4 46 
53 44 26 74 65 52 3 
42 34 40 15 22 27 47 60 
45 70 10 75 76 64 72 
56 20 39 48 11 13 73 
57 5 9 36 49 6 59 24 
37 58 35 18 67 55 14 
29 69 30 25 7 23 
32 31 12 28 51 1 
